48 48
19 13
7 22
4 18
1 16
22 17
42 19
30 1
43 23
14 7
32 7
6 19
38 24
46 9
11 21
13 20
41 24
29 15
10 3
33 17
47 5
26 11
20 18
31 5
12 1
34 10
44 15
9 6
25 8
2 14
8 20
18 2
37 13
48 14
5 8
3 12
17 10
27 21
28 6
40 3
36 23
45 16
24 4
16 2
23 12
35 9
21 4
39 11
15 22
